COOK = {C1, C2, C3, C4, C5, C6};
DISH = {D1, D2, D3, D4, D5, D6, D7, D8, D9, D10};
no_tasks = 58;
steps = [1..6, 7..12, 13..18, 19..24, 25..30, 31..36, 37..41, 42..47, 48..52, 53..58];
time = array2d(1..58,COOK,[3, 2, 3, 5, 3, 6, 0, 0, 4, 0, 0, 5, 1, 6, 3, 3, 6, 5, 0, 6, 0, 0, 0, 0, 0, 0, 0, 0, 6, 3, 0, 1, 2, 0, 4, 0, 3, 4, 0, 2, 6, 1, 0, 0, 0, 0, 6, 3, 0, 0, 0, 0, 2, 0, 0, 4, 3, 0, 0, 0, 0, 1, 2, 0, 4, 0, 3, 2, 3, 5, 3, 6, 1, 6, 3, 3, 6, 5, 2, 4, 6, 6, 3, 6, 0, 1, 2, 0, 4, 0, 4, 3, 5, 0, 2, 3, 5, 4, 3, 1, 5, 3, 4, 0, 6, 6, 3, 3, 4, 3, 5, 0, 2, 3, 3, 4, 0, 2, 6, 1, 0, 6, 0, 0, 0, 0, 1, 6, 3, 3, 6, 5, 4, 3, 0, 5, 4, 3, 5, 4, 3, 1, 5, 3, 2, 4, 6, 6, 3, 6, 4, 3, 0, 5, 4, 3, 0, 0, 0, 3, 0, 0, 4, 0, 6, 6, 3, 3, 3, 4, 0, 2, 6, 1, 0, 4, 3, 0, 0, 0, 4, 0, 6, 6, 3, 3, 0, 0, 4, 0, 0, 5, 4, 3, 5, 0, 2, 3, 2, 4, 6, 6, 3, 6, 0, 6, 0, 0, 0, 0, 3, 4, 0, 2, 6, 1, 5, 4, 3, 1, 5, 3, 0, 0, 0, 0, 2, 0, 2, 4, 6, 6, 3, 6, 3, 2, 3, 5, 3, 6, 4, 0, 6, 6, 3, 3, 0, 4, 3, 0, 0, 0, 4, 3, 5, 0, 2, 3, 2, 4, 6, 6, 3, 6, 4, 0, 6, 6, 3, 3, 4, 3, 0, 5, 4, 3, 3, 4, 0, 2, 6, 1, 0, 6, 0, 0, 0, 0, 0, 0, 4, 0, 0, 5, 3, 4, 0, 2, 6, 1, 4, 3, 0, 5, 4, 3, 0, 4, 3, 0, 0, 0, 0, 0, 0, 3, 0, 0, 2, 4, 6, 6, 3, 6, 4, 0, 6, 6, 3, 3, 5, 4, 3, 1, 5, 3, 0, 0, 0, 0, 6, 3, 3, 4, 0, 2, 6, 1]);
